instances/in_40_20_8_4.dzn
n = 40;
k = 20;
h = 8;
tiles = array2d(1..n, 1..2,
[ 19,20
, 3,5
, 11,9
, 14,4
, 1,2
, 14,10
, 9,17
, 1,3
, 4,12
, 4,13
, 7,12
, 15,15
, 2,6
, 2,9
, 19,5
, 7,20
, 16,18
, 17,20
, 6,9
, 3,5
, 14,10
, 12,20
, 1,2
, 16,5
, 11,7
, 18,2
, 1,2
, 3,18
, 16,10
, 11,7
, 1,7
, 5,8
, 7,6
, 2,6
, 2,11
, 14,1
, 17,1
, 11,3
, 8,12
, 6,1
]);