instances/in_40_20_8_4.lp
#const n = 40.
#const k = 20.
#const h = 8.
tile(1,19,20).
tile(2,3,5).
tile(3,11,9).
tile(4,14,4).
tile(5,1,2).
tile(6,14,10).
tile(7,9,17).
tile(8,1,3).
tile(9,4,12).
tile(10,4,13).
tile(11,7,12).
tile(12,15,15).
tile(13,2,6).
tile(14,2,9).
tile(15,19,5).
tile(16,7,20).
tile(17,16,18).
tile(18,17,20).
tile(19,6,9).
tile(20,3,5).
tile(21,14,10).
tile(22,12,20).
tile(23,1,2).
tile(24,16,5).
tile(25,11,7).
tile(26,18,2).
tile(27,1,2).
tile(28,3,18).
tile(29,16,10).
tile(30,11,7).
tile(31,1,7).
tile(32,5,8).
tile(33,7,6).
tile(34,2,6).
tile(35,2,11).
tile(36,14,1).
tile(37,17,1).
tile(38,11,3).
tile(39,8,12).
tile(40,6,1).
